(set-logic HORN)
; KVARS

(declare-fun k_99 (Int Int Int Int Int Int Int Int) Bool)

(declare-fun k_97 (Int Int Int Int Int Int Int Int Int) Bool)

(declare-fun k_593 (Int Int Int Int Int Int Int) Bool)

(declare-fun k_591 (Int Int Int Int Int Int Int Int Int Int Int Int Int Int Int Int) Bool)

(declare-fun k_585 (Int Int Int Int Int Int Int Int Int Int Int Int Int Int Int Int Int Int) Bool)

(declare-fun k_582 (Int Int Int Int Int Int Int Int Int Int Int Int Int Int Int Int Int) Bool)

(declare-fun k_580 (Int Int Int Int Int Int Int Int Int Int Int Int Int Int Int Int Int Int) Bool)

(declare-fun k_578 (Int Int Int Int Int Int Int Int Int Int Int Int Int Int Int Int Int) Bool)

(declare-fun k_574 (Int Int Int Int Int Int Int Int Int Int Int Int Int Int Int Int) Bool)

(declare-fun k_570 (Int Int Int Int Int Int Int Int Int Int Int Int Int Int) Bool)

(declare-fun k_566 (Int Int Int Int Int Int Int Int Int Int Int Int Int Int Int) Bool)

(declare-fun k_563 (Int Int Int Int Int Int Int Int Int Int Int Int Int Int) Bool)

(declare-fun k_560 (Int Int Int Int Int Int Int Int Int Int Int Int Int) Bool)

(declare-fun k_558 (Int Int Int Int Int Int Int Int Int Int Int Int Int Int) Bool)

(declare-fun k_553 (Int Int Int Int Int Int Int Int Int Int Int) Bool)

(declare-fun k_550 (Int Int Int Int Int Int Int Int Int Int) Bool)

(declare-fun k_547 (Int Int Int Int Int Int Int Int Int) Bool)

(declare-fun k_545 (Int Int Int Int Int Int Int Int Int) Bool)

(declare-fun k_542 (Int Int Int Int Int Int Int Int) Bool)

(declare-fun k_540 (Int Int Int Int Int Int Int Int Int) Bool)

(declare-fun k_537 (Int Int Int Int Int Int Int) Bool)

(declare-fun k_535 (Int Int Int Int Int Int Int Int) Bool)

(declare-fun k_531 (Int Int Int Int Int Int Int Int Int Int) Bool)

(declare-fun k_529 (Int Int Int Int Int Int Int Int Int Int Int Int Int Int Int Int Int Int Int Int) Bool)

(declare-fun k_522 (Int Int Int Int Int Int Int Int Int Int Int Int Int Int Int Int Int) Bool)

(declare-fun k_520 (Int Int Int Int Int Int Int Int Int Int Int Int Int Int Int Int Int Int) Bool)

(declare-fun k_515 (Int Int Int Int Int Int Int Int Int Int Int Int Int Int Int) Bool)

(declare-fun k_513 (Int Int Int Int Int Int Int Int Int Int Int Int Int Int Int) Bool)

(declare-fun k_510 (Int Int Int Int Int Int Int Int Int Int Int Int Int Int) Bool)

(declare-fun k_507 (Int Int Int Int Int Int Int Int Int Int Int Int Int) Bool)

(declare-fun k_504 (Int Int Int Int Int Int Int Int Int Int Int Int Int Int Int) Bool)

(declare-fun k_502 (Int Int Int Int Int Int Int Int Int Int Int Int Int Int) Bool)

(declare-fun k_499 (Int Int Int Int Int Int Int Int Int Int Int Int Int) Bool)

(declare-fun k_495 (Int Int Int Int Int Int Int Int Int Int Int Int) Bool)

(declare-fun k_492 (Int Int Int Int Int Int Int Int Int Int Int) Bool)

(declare-fun k_489 (Int Int Int Int Int Int Int Int Int Int) Bool)

(declare-fun k_485 (Int Int Int Int Int Int Int Int Int Int Int Int) Bool)

(declare-fun k_483 (Int Int Int Int Int Int Int Int Int Int Int) Bool)

(declare-fun k_480 (Int Int Int Int Int Int Int Int Int Int) Bool)

(declare-fun k_477 (Int Int Int Int Int Int Int Int Int Int Int Int Int Int Int) Bool)

(declare-fun k_475 (Int Int Int Int Int Int Int Int Int Int Int Int Int Int) Bool)

(declare-fun k_473 (Int Int Int Int Int Int Int Int Int Int Int Int Int) Bool)

(declare-fun k_471 (Int Int Int Int Int Int Int Int Int Int Int Int Int Int Int) Bool)

(declare-fun k_469 (Int Int Int Int Int Int Int Int Int Int Int Int Int Int) Bool)

(declare-fun k_466 (Int Int Int Int Int Int Int Int Int Int Int Int Int) Bool)

(declare-fun k_463 (Int Int Int Int Int Int Int Int Int Int Int Int) Bool)

(declare-fun k_461 (Int Int Int Int Int Int Int Int Int Int Int) Bool)

(declare-fun k_459 (Int Int Int Int Int Int Int Int Int Int) Bool)

(declare-fun k_457 (Int Int Int Int Int Int Int Int Int Int) Bool)

(declare-fun k_454 (Int Int Int Int Int Int Int Int Int Int Int Int) Bool)

(declare-fun k_452 (Int Int Int Int Int Int Int Int Int Int Int) Bool)

(declare-fun k_449 (Int Int Int Int Int Int Int Int Int Int) Bool)

(declare-fun k_445 (Int Int Int Int Int Int Int Int Int) Bool)

(declare-fun k_442 (Int Int Int Int Int Int Int Int) Bool)

(declare-fun k_439 (Int Int Int Int Int Int Int) Bool)

(declare-fun k_431 (Int Int Int Int Int Int Int Int Int Int) Bool)

(declare-fun k_422 (Int Int Int Int Int Int Int Int Int Int Int Int Int Int) Bool)

(declare-fun k_418 (Int Int Int Int Int Int Int Int Int Int Int Int Int Int) Bool)

(declare-fun k_416 (Int Int Int Int Int Int Int Int Int Int Int Int Int Int Int) Bool)

(declare-fun k_411 (Int Int Int Int Int Int Int Int Int Int Int Int) Bool)

(declare-fun k_406 (Int Int Int Int Int Int Int Int Int Int) Bool)

(declare-fun k_404 (Int Int Int Int Int Int Int Int Int Int Int Int) Bool)

(declare-fun k_402 (Int Int Int Int Int Int Int Int Int Int Int) Bool)

(declare-fun k_399 (Int Int Int Int Int Int Int Int Int Int) Bool)

(declare-fun k_395 (Int Int Int Int Int Int Int Int Int) Bool)

(declare-fun k_393 (Int Int Int Int Int Int Int Int Int Int) Bool)

(declare-fun k_389 (Int Int Int Int Int Int Int Int Int Int Int) Bool)

(declare-fun k_387 (Int Int Int Int Int Int Int Int Int Int) Bool)

(declare-fun k_384 (Int Int Int Int Int Int Int Int Int) Bool)

(declare-fun k_381 (Int Int Int Int Int Int Int Int Int Int Int Int) Bool)

(declare-fun k_379 (Int Int Int Int Int Int Int Int Int Int Int) Bool)

(declare-fun k_377 (Int Int Int Int Int Int Int Int Int Int) Bool)

(declare-fun k_375 (Int Int Int Int Int Int Int Int Int) Bool)

(declare-fun k_373 (Int Int Int Int Int Int Int Int Int Int) Bool)

(declare-fun k_370 (Int Int Int Int Int Int Int Int) Bool)

(declare-fun k_368 (Int Int Int Int Int Int Int Int) Bool)

(declare-fun k_365 (Int Int Int Int Int Int Int) Bool)

(declare-fun k_363 (Int Int Int Int Int Int Int Int) Bool)

(declare-fun k_360 (Int Int Int Int Int Int Int Int Int Int Int Int Int Int Int Int) Bool)

(declare-fun k_357 (Int Int Int Int Int Int Int Int Int Int Int Int Int Int Int) Bool)

(declare-fun k_354 (Int Int Int Int Int Int Int Int Int Int Int Int Int Int Int Int) Bool)

(declare-fun k_351 (Int Int Int Int Int Int Int Int Int Int Int Int Int Int Int) Bool)

(declare-fun k_349 (Int Int Int Int Int Int Int Int Int Int Int Int Int Int Int Int) Bool)

(declare-fun k_343 (Int Int Int Int Int Int Int Int Int Int Int Int) Bool)

(declare-fun k_340 (Int Int Int Int Int Int Int Int Int Int Int) Bool)

(declare-fun k_337 (Int Int Int Int Int Int Int Int Int Int) Bool)

(declare-fun k_334 (Int Int Int Int Int Int Int Int Int) Bool)

(declare-fun k_332 (Int Int Int Int Int Int Int Int Int Int) Bool)

(declare-fun k_329 (Int Int Int Int Int Int Int Int) Bool)

(declare-fun k_326 (Int Int Int Int Int Int Int) Bool)

(declare-fun k_324 (Int Int Int Int Int Int Int Int) Bool)

(declare-fun k_322 (Int Int Int Int Int Int Int Int Int) Bool)

(declare-fun k_319 (Int Int Int Int Int Int Int Int) Bool)

(declare-fun k_316 (Int Int Int Int Int Int Int) Bool)

(declare-fun k_314 (Int Int Int Int Int Int Int Int) Bool)

(declare-fun k_312 (Int Int Int Int Int Int Int Int Int) Bool)

(declare-fun k_309 (Int Int Int Int Int Int Int Int) Bool)

(declare-fun k_306 (Int Int Int Int Int Int Int) Bool)

(declare-fun k_304 (Int Int Int Int Int Int Int Int) Bool)

(declare-fun k_295 (Int Int Int Int Int Int Int Int Int Int Int) Bool)

(declare-fun k_291 (Int Int Int Int Int Int Int Int Int) Bool)

(declare-fun k_288 (Int Int Int Int Int Int Int Int) Bool)

(declare-fun k_281 (Int Int Int Int Int Int Int Int Int) Bool)

(declare-fun k_278 (Int Int Int Int Int Int Int Int) Bool)

(declare-fun k_269 (Int Int Int Int Int Int Int Int Int Int Int Int Int Int Int Int Int Int Int Int) Bool)

(declare-fun k_258 (Int Int Int Int Int Int Int Int Int Int Int Int Int Int) Bool)

(declare-fun k_255 (Int Int Int Int Int Int Int Int Int Int Int Int Int) Bool)

(declare-fun k_252 (Int Int Int Int Int Int Int Int Int Int Int Int Int Int) Bool)

(declare-fun k_249 (Int Int Int Int Int Int Int Int Int Int Int Int Int Int) Bool)

(declare-fun k_247 (Int Int Int Int Int Int Int Int Int Int Int Int Int Int Int) Bool)

(declare-fun k_245 (Int Int Int Int Int Int Int Int Int Int Int Int Int Int Int) Bool)

(declare-fun k_243 (Int Int Int Int Int Int Int Int Int Int Int Int Int Int) Bool)

(declare-fun k_240 (Int Int Int Int Int Int Int Int Int Int Int Int Int Int Int) Bool)

(declare-fun k_238 (Int Int Int Int Int Int Int Int Int Int Int Int Int Int Int) Bool)

(declare-fun k_236 (Int Int Int Int Int Int Int Int Int Int Int Int Int Int Int) Bool)

(declare-fun k_233 (Int Int Int Int Int Int Int Int Int Int Int Int) Bool)

(declare-fun k_230 (Int Int Int Int Int Int Int Int Int Int Int) Bool)

(declare-fun k_227 (Int Int Int Int Int Int Int Int Int Int Int Int) Bool)

(declare-fun k_224 (Int Int Int Int Int Int Int Int Int Int Int Int) Bool)

(declare-fun k_222 (Int Int Int Int Int Int Int Int Int Int Int Int Int) Bool)

(declare-fun k_220 (Int Int Int Int Int Int Int Int Int Int Int Int Int) Bool)

(declare-fun k_218 (Int Int Int Int Int Int Int Int Int Int Int Int) Bool)

(declare-fun k_215 (Int Int Int Int Int Int Int Int Int Int Int Int Int) Bool)

(declare-fun k_213 (Int Int Int Int Int Int Int Int Int Int Int Int Int) Bool)

(declare-fun k_211 (Int Int Int Int Int Int Int Int Int Int Int Int Int) Bool)

(declare-fun k_208 (Int Int Int Int Int Int Int Int Int Int) Bool)

(declare-fun k_206 (Int Int Int Int Int Int Int Int Int Int Int) Bool)

(declare-fun k_201 (Int Int Int Int Int Int Int Int Int Int Int Int) Bool)

(declare-fun k_199 (Int Int Int Int Int Int Int Int Int Int Int) Bool)

(declare-fun k_196 (Int Int Int Int Int Int Int Int Int Int Int Int) Bool)

(declare-fun k_193 (Int Int Int Int Int Int Int Int Int Int Int Int) Bool)

(declare-fun k_191 (Int Int Int Int Int Int Int Int Int Int Int Int Int) Bool)

(declare-fun k_189 (Int Int Int Int Int Int Int Int Int Int Int Int Int) Bool)

(declare-fun k_187 (Int Int Int Int Int Int Int Int Int Int Int Int) Bool)

(declare-fun k_184 (Int Int Int Int Int Int Int Int Int Int Int Int Int) Bool)

(declare-fun k_182 (Int Int Int Int Int Int Int Int Int Int Int Int Int) Bool)

(declare-fun k_180 (Int Int Int Int Int Int Int Int Int Int Int Int Int) Bool)

(declare-fun k_177 (Int Int Int Int Int Int Int Int Int Int) Bool)

(declare-fun k_174 (Int Int Int Int Int Int Int Int Int Int Int Int Int Int) Bool)

(declare-fun k_172 (Int Int Int Int Int Int Int Int Int Int Int Int Int) Bool)

(declare-fun k_169 (Int Int Int Int Int Int Int Int Int Int Int Int Int Int) Bool)

(declare-fun k_166 (Int Int Int Int Int Int Int Int Int Int Int Int Int Int) Bool)

(declare-fun k_164 (Int Int Int Int Int Int Int Int Int Int Int Int Int Int Int) Bool)

(declare-fun k_162 (Int Int Int Int Int Int Int Int Int Int Int Int Int Int Int) Bool)

(declare-fun k_160 (Int Int Int Int Int Int Int Int Int Int Int Int Int Int) Bool)

(declare-fun k_157 (Int Int Int Int Int Int Int Int Int Int Int Int Int Int Int) Bool)

(declare-fun k_155 (Int Int Int Int Int Int Int Int Int Int Int Int Int Int Int) Bool)

(declare-fun k_153 (Int Int Int Int Int Int Int Int Int Int Int Int Int Int Int) Bool)

(declare-fun k_151 (Int Int Int Int Int Int Int Int Int Int Int Int) Bool)

(declare-fun k_149 (Int Int Int Int Int Int Int Int Int Int Int) Bool)

(declare-fun k_146 (Int Int Int Int Int Int Int Int Int Int Int Int) Bool)

(declare-fun k_143 (Int Int Int Int Int Int Int Int Int Int Int Int) Bool)

(declare-fun k_141 (Int Int Int Int Int Int Int Int Int Int Int Int Int) Bool)

(declare-fun k_139 (Int Int Int Int Int Int Int Int Int Int Int Int Int) Bool)

(declare-fun k_137 (Int Int Int Int Int Int Int Int Int Int Int Int) Bool)

(declare-fun k_134 (Int Int Int Int Int Int Int Int Int Int Int Int Int) Bool)

(declare-fun k_132 (Int Int Int Int Int Int Int Int Int Int Int Int Int) Bool)

(declare-fun k_130 (Int Int Int Int Int Int Int Int Int Int Int Int Int) Bool)

(declare-fun k_128 (Int Int Int Int Int Int Int Int Int Int) Bool)

(declare-fun k_126 (Int Int Int Int Int Int Int Int Int Int Int) Bool)

(declare-fun k_124 (Int Int Int Int Int Int Int Int Int Int) Bool)

(declare-fun k_121 (Int Int Int Int Int Int Int Int Int) Bool)

(declare-fun k_118 (Int Int Int Int Int Int Int Int Int Int) Bool)

(declare-fun k_115 (Int Int Int Int Int Int Int Int Int Int) Bool)

(declare-fun k_113 (Int Int Int Int Int Int Int Int Int Int Int) Bool)

(declare-fun k_111 (Int Int Int Int Int Int Int Int Int Int Int) Bool)

(declare-fun k_109 (Int Int Int Int Int Int Int Int Int Int) Bool)

(declare-fun k_106 (Int Int Int Int Int Int Int Int Int Int Int) Bool)

(declare-fun k_104 (Int Int Int Int Int Int Int Int Int Int Int) Bool)

(declare-fun k_102 (Int Int Int Int Int Int Int Int Int Int Int) Bool)

; CONSTRAINTS

; cid = 121
(assert (forall ((EQ_6U Int) 
(False_68 Int) (GT_6W Int) (LT_6S Int) (Prop (Array Int Bool)) (True_6u Int) 
(VV_F121 Int) (cmp (Array Int Int)) (i_aZN Int) (realWorld__0f Int) 
(vec_aZM Int) 
(vlen (Array Int Int))) 
 (=> (and (not (and (<= 0 VV_F121) (and (< VV_F121 (select vlen vec_aZM)) true))) (and (k_309 EQ_6U False_68 GT_6W LT_6S True_6u i_aZN realWorld__0f vec_aZM) (and (k_306 EQ_6U False_68 GT_6W LT_6S True_6u vec_aZM realWorld__0f) (and (= (select cmp EQ_6U) EQ_6U) (and (not (select Prop False_68)) (and (= (select cmp GT_6W) GT_6W) (and (= (select cmp LT_6S) LT_6S) (and (select Prop True_6u) (and (>= (select vlen vec_aZM) 0) (and (k_309 EQ_6U False_68 GT_6W LT_6S True_6u VV_F121 realWorld__0f vec_aZM) (and (= VV_F121 i_aZN) true))))))))))) false))
)


; cid = 120
(assert (forall ((EQ_6U Int) (False_68 Int) (GT_6W Int) 
(LT_6S Int) (Prop (Array Int Bool)) (True_6u Int) (VV_F120 Int) 
(cmp (Array Int Int)) (realWorld__0f Int) (vec Int) 
(vlen (Array Int Int))) 
 (=> (and (= (select cmp EQ_6U) EQ_6U) (and (not (select Prop False_68)) (and (= (select cmp GT_6W) GT_6W) (and (= (select cmp LT_6S) LT_6S) (and (select Prop True_6u) (and (>= (select vlen vec) 0) (and (< VV_F120 (select vlen vec)) (and (not (< VV_F120 0)) true)))))))) (k_309 EQ_6U False_68 GT_6W LT_6S True_6u VV_F120 realWorld__0f vec)))
)


; cid = 118
(assert (forall ((EQ_6U Int) (False_68 Int) (GT_6W Int) 
(LT_6S Int) (Prop (Array Int Bool)) (True_6u Int) (VV_F118 Int) 
(cmp (Array Int Int)) 
(realWorld__0f Int)) 
 (=> (and (= (select cmp EQ_6U) EQ_6U) (and (not (select Prop False_68)) (and (= (select cmp GT_6W) GT_6W) (and (= (select cmp LT_6S) LT_6S) (and (select Prop True_6u) true))))) (k_306 EQ_6U False_68 GT_6W LT_6S True_6u VV_F118 realWorld__0f)))
)
